; DUP1 CALLDATALOAD PUSH cw_2 SWAP1 DUP2 => PUSH cw_2 DUP2 CALLDATALOAD PUSH cw_2
(set-option :produce-proofs true)
; 
(set-info :status unknown)
(declare-fun storage_t ((_ BitVec 256) (_ BitVec 256) (_ BitVec 256) Int (_ BitVec 256)) (_ BitVec 256))
(declare-fun w_2 () (_ BitVec 256))
(declare-fun storage_s ((_ BitVec 256) (_ BitVec 256) (_ BitVec 256) Int (_ BitVec 256)) (_ BitVec 256))
(declare-fun exc_halt_t (Int) Bool)
(declare-fun exc_halt_s (Int) Bool)
(declare-fun stack_t ((_ BitVec 256) (_ BitVec 256) (_ BitVec 256) Int (_ BitVec 6)) (_ BitVec 256))
(declare-fun stack_s ((_ BitVec 256) (_ BitVec 256) (_ BitVec 256) Int (_ BitVec 6)) (_ BitVec 256))
(declare-fun sc_t (Int) (_ BitVec 6))
(declare-fun sc_s (Int) (_ BitVec 6))
(declare-fun used_gas_t ((_ BitVec 256) (_ BitVec 256) (_ BitVec 256) Int) Int)
(declare-fun used_gas_s ((_ BitVec 256) (_ BitVec 256) (_ BitVec 256) Int) Int)
(declare-fun f_CALLDATALOAD ((_ BitVec 256) (_ BitVec 256) (_ BitVec 256) (_ BitVec 256)) (_ BitVec 256))
(assert
 (exists ((x_0 (_ BitVec 256)) (x_CALLDATALOAD_0 (_ BitVec 256)) )(let (($x2421 (forall ((w (_ BitVec 256)) )(let ((?x10290 (storage_t x_0 w_2 x_CALLDATALOAD_0 4 w)))
 (let ((?x868 (storage_s x_0 w_2 x_CALLDATALOAD_0 5 w)))
 (= ?x868 ?x10290))))
 ))
 (let (($x7854 (exc_halt_t 4)))
 (let (($x11317 (exc_halt_s 5)))
 (let (($x6479 (= $x11317 $x7854)))
 (let (($x6335 (forall ((n (_ BitVec 6)) )(let ((?x5170 (stack_t x_0 w_2 x_CALLDATALOAD_0 4 n)))
 (let ((?x4934 (stack_s x_0 w_2 x_CALLDATALOAD_0 5 n)))
 (let (($x11569 (= ?x4934 ?x5170)))
 (let ((?x4818 (sc_t 4)))
 (let (($x6358 (bvsle ?x4818 n)))
 (or $x6358 $x11569)))))))
 ))
 (let ((?x4818 (sc_t 4)))
 (let ((?x4319 (sc_s 5)))
 (let (($x1733 (= ?x4319 ?x4818)))
 (let ((?x6373 (used_gas_t x_0 w_2 x_CALLDATALOAD_0 0)))
 (let ((?x5894 (used_gas_s x_0 w_2 x_CALLDATALOAD_0 0)))
 (let (($x7684 (= ?x5894 ?x6373)))
 (let (($x6830 (forall ((w (_ BitVec 256)) )(let ((?x5433 (storage_t x_0 w_2 x_CALLDATALOAD_0 0 w)))
 (let ((?x10782 (storage_s x_0 w_2 x_CALLDATALOAD_0 0 w)))
 (= ?x10782 ?x5433))))
 ))
 (let (($x56 (exc_halt_t 0)))
 (let (($x57 (exc_halt_s 0)))
 (let (($x58 (= $x57 $x56)))
 (let (($x11445 (forall ((n (_ BitVec 6)) )(let ((?x63 (sc_t 0)))
 (let (($x6552 (bvsle ?x63 n)))
 (let ((?x2612 (stack_t x_0 w_2 x_CALLDATALOAD_0 0 n)))
 (let ((?x5521 (stack_s x_0 w_2 x_CALLDATALOAD_0 0 n)))
 (let (($x2323 (= ?x5521 ?x2612)))
 (or $x2323 $x6552)))))))
 ))
 (let ((?x63 (sc_t 0)))
 (let ((?x72 (sc_s 0)))
 (let (($x73 (= ?x72 ?x63)))
 (let (($x11926 (not (= ((_ extract 6 6) (bvadd (_ bv1 7) (concat (_ bv0 1) (sc_t 3)))) (_ bv0 1)))))
 (let (($x3614 (exc_halt_t 3)))
 (let (($x8367 (forall ((w (_ BitVec 256)) )(let ((?x6903 (storage_t x_0 w_2 x_CALLDATALOAD_0 3 w)))
 (let ((?x10290 (storage_t x_0 w_2 x_CALLDATALOAD_0 4 w)))
 (= ?x10290 ?x6903))))
 ))
 (let (($x5383 (forall ((n (_ BitVec 6)) )(let ((?x1564 (stack_t x_0 w_2 x_CALLDATALOAD_0 3 n)))
 (let ((?x5170 (stack_t x_0 w_2 x_CALLDATALOAD_0 4 n)))
 (let ((?x11304 (sc_t 3)))
 (let (($x5590 (bvsle ?x11304 n)))
 (or $x5590 (= ?x5170 ?x1564)))))))
 ))
 (let (($x11867 (= ?x4818 (bvadd (_ bv1 6) (sc_t 3)))))
 (let (($x6117 (= (used_gas_t x_0 w_2 x_CALLDATALOAD_0 4) (+ 3 (used_gas_t x_0 w_2 x_CALLDATALOAD_0 3)))))
 (let (($x10396 (= $x3614 (or (exc_halt_t 2) (not (bvsle (_ bv0 6) (bvadd (_ bv63 6) (sc_t 2))))))))
 (let (($x4655 (forall ((w (_ BitVec 256)) )(let ((?x4168 (storage_t x_0 w_2 x_CALLDATALOAD_0 2 w)))
 (let ((?x6903 (storage_t x_0 w_2 x_CALLDATALOAD_0 3 w)))
 (= ?x6903 ?x4168))))
 ))
 (let (($x5128 (forall ((n (_ BitVec 6)) )(let ((?x8936 (stack_t x_0 w_2 x_CALLDATALOAD_0 2 n)))
 (let ((?x1564 (stack_t x_0 w_2 x_CALLDATALOAD_0 3 n)))
 (let ((?x6158 (sc_t 2)))
 (let ((?x5173 (bvadd (_ bv63 6) ?x6158)))
 (let (($x3972 (bvsle ?x5173 n)))
 (or $x3972 (= ?x1564 ?x8936))))))))
 ))
 (let ((?x6158 (sc_t 2)))
 (let ((?x11304 (sc_t 3)))
 (let (($x5666 (= ?x11304 ?x6158)))
 (let ((?x2344 (used_gas_t x_0 w_2 x_CALLDATALOAD_0 3)))
 (let ((?x5173 (bvadd (_ bv63 6) ?x6158)))
 (let ((?x7464 (stack_t x_0 w_2 x_CALLDATALOAD_0 2 ?x5173)))
 (let (($x9285 (= (stack_t x_0 w_2 x_CALLDATALOAD_0 3 (bvadd (_ bv63 6) ?x11304)) (f_CALLDATALOAD x_0 w_2 x_CALLDATALOAD_0 ?x7464))))
 (let (($x8377 (exc_halt_t 1)))
 (let (($x3336 (not (= ((_ extract 6 6) (bvadd (_ bv1 7) (concat (_ bv0 1) (sc_t 1)))) (_ bv0 1)))))
 (let (($x9674 (exc_halt_t 2)))
 (let (($x7692 (= $x9674 (or $x3336 $x8377 (not (bvsle (_ bv0 6) (bvadd (_ bv62 6) (sc_t 1))))))))
 (let (($x8069 (forall ((w (_ BitVec 256)) )(let ((?x2386 (storage_t x_0 w_2 x_CALLDATALOAD_0 1 w)))
 (let ((?x4168 (storage_t x_0 w_2 x_CALLDATALOAD_0 2 w)))
 (= ?x4168 ?x2386))))
 ))
 (let (($x2714 (forall ((n (_ BitVec 6)) )(let ((?x7154 (sc_t 1)))
 (let ((?x11582 (bvadd (_ bv62 6) ?x7154)))
 (let (($x5320 (bvsle ?x11582 n)))
 (let ((?x10742 (stack_t x_0 w_2 x_CALLDATALOAD_0 1 n)))
 (let ((?x8936 (stack_t x_0 w_2 x_CALLDATALOAD_0 2 n)))
 (or (= ?x8936 ?x10742) $x5320)))))))
 ))
 (let (($x3131 (= ?x6158 (bvadd (_ bv1 6) (sc_t 1)))))
 (let ((?x9443 (used_gas_t x_0 w_2 x_CALLDATALOAD_0 2)))
 (let (($x1179 (= (stack_t x_0 w_2 x_CALLDATALOAD_0 2 (bvadd (_ bv63 6) (sc_t 1))) (stack_t x_0 w_2 x_CALLDATALOAD_0 1 (bvadd (_ bv63 6) (sc_t 1))))))
 (let ((?x7154 (sc_t 1)))
 (let ((?x11582 (bvadd (_ bv62 6) ?x7154)))
 (let ((?x3082 (stack_t x_0 w_2 x_CALLDATALOAD_0 1 ?x11582)))
 (let (($x10494 (= $x8377 (or $x56 (not (= ((_ extract 6 6) (bvadd (_ bv1 7) (concat (_ bv0 1) ?x63))) (_ bv0 1)))))))
 (let (($x5878 (forall ((w (_ BitVec 256)) )(let ((?x5433 (storage_t x_0 w_2 x_CALLDATALOAD_0 0 w)))
 (let ((?x2386 (storage_t x_0 w_2 x_CALLDATALOAD_0 1 w)))
 (= ?x2386 ?x5433))))
 ))
 (let (($x7426 (forall ((n (_ BitVec 6)) )(let ((?x63 (sc_t 0)))
 (let (($x6552 (bvsle ?x63 n)))
 (let ((?x2612 (stack_t x_0 w_2 x_CALLDATALOAD_0 0 n)))
 (let ((?x10742 (stack_t x_0 w_2 x_CALLDATALOAD_0 1 n)))
 (or (= ?x10742 ?x2612) $x6552))))))
 ))
 (let (($x10097 (= ?x7154 (bvadd (_ bv1 6) ?x63))))
 (let (($x11812 (not (= ((_ extract 6 6) (bvadd (_ bv1 7) (concat (_ bv0 1) (sc_s 4)))) (_ bv0 1)))))
 (let (($x7172 (exc_halt_s 4)))
 (let (($x359 (not (bvsle (_ bv0 6) (bvadd (_ bv62 6) (sc_s 4))))))
 (let (($x4053 (= $x11317 (or $x359 $x7172 $x11812))))
 (let (($x9164 (forall ((w (_ BitVec 256)) )(let ((?x10086 (storage_s x_0 w_2 x_CALLDATALOAD_0 4 w)))
 (let ((?x868 (storage_s x_0 w_2 x_CALLDATALOAD_0 5 w)))
 (= ?x868 ?x10086))))
 ))
 (let (($x5152 (forall ((n (_ BitVec 6)) )(let ((?x4305 (sc_s 4)))
 (let ((?x103 (bvadd (_ bv62 6) ?x4305)))
 (let (($x8692 (bvsle ?x103 n)))
 (let ((?x9049 (stack_s x_0 w_2 x_CALLDATALOAD_0 4 n)))
 (let ((?x4934 (stack_s x_0 w_2 x_CALLDATALOAD_0 5 n)))
 (or (= ?x4934 ?x9049) $x8692)))))))
 ))
 (let (($x7882 (= ?x4319 (bvadd (_ bv1 6) (sc_s 4)))))
 (let (($x845 (= (used_gas_s x_0 w_2 x_CALLDATALOAD_0 5) (+ 3 (used_gas_s x_0 w_2 x_CALLDATALOAD_0 4)))))
 (let ((?x4305 (sc_s 4)))
 (let ((?x8905 (bvadd (_ bv63 6) ?x4305)))
 (let ((?x5574 (stack_s x_0 w_2 x_CALLDATALOAD_0 4 ?x8905)))
 (let ((?x103 (bvadd (_ bv62 6) ?x4305)))
 (let ((?x4095 (stack_s x_0 w_2 x_CALLDATALOAD_0 4 ?x103)))
 (let (($x6198 (= $x7172 (or (exc_halt_s 3) (not (bvsle (_ bv0 6) (bvadd (_ bv62 6) (sc_s 3))))))))
 (let (($x1255 (forall ((w (_ BitVec 256)) )(let ((?x8794 (storage_s x_0 w_2 x_CALLDATALOAD_0 3 w)))
 (let ((?x10086 (storage_s x_0 w_2 x_CALLDATALOAD_0 4 w)))
 (= ?x10086 ?x8794))))
 ))
 (let (($x1015 (forall ((n (_ BitVec 6)) )(let ((?x7785 (stack_s x_0 w_2 x_CALLDATALOAD_0 3 n)))
 (let ((?x9049 (stack_s x_0 w_2 x_CALLDATALOAD_0 4 n)))
 (let ((?x275 (sc_s 3)))
 (let ((?x10583 (bvadd (_ bv62 6) ?x275)))
 (let (($x2401 (bvsle ?x10583 n)))
 (or $x2401 (= ?x9049 ?x7785))))))))
 ))
 (let ((?x275 (sc_s 3)))
 (let (($x5793 (= ?x4305 ?x275)))
 (let ((?x3114 (used_gas_s x_0 w_2 x_CALLDATALOAD_0 4)))
 (let (($x1408 (not (= ((_ extract 6 6) (bvadd (_ bv1 7) (concat (_ bv0 1) (sc_s 2)))) (_ bv0 1)))))
 (let (($x247 (exc_halt_s 2)))
 (let (($x292 (exc_halt_s 3)))
 (let (($x7884 (= $x292 (or $x247 $x1408))))
 (let (($x11802 (forall ((w (_ BitVec 256)) )(let ((?x959 (storage_s x_0 w_2 x_CALLDATALOAD_0 2 w)))
 (let ((?x8794 (storage_s x_0 w_2 x_CALLDATALOAD_0 3 w)))
 (= ?x8794 ?x959))))
 ))
 (let (($x4092 (forall ((n (_ BitVec 6)) )(let ((?x5397 (stack_s x_0 w_2 x_CALLDATALOAD_0 2 n)))
 (let ((?x7785 (stack_s x_0 w_2 x_CALLDATALOAD_0 3 n)))
 (let ((?x218 (sc_s 2)))
 (let (($x5030 (bvsle ?x218 n)))
 (or $x5030 (= ?x7785 ?x5397)))))))
 ))
 (let (($x799 (= ?x275 (bvadd (_ bv1 6) (sc_s 2)))))
 (let ((?x6689 (used_gas_s x_0 w_2 x_CALLDATALOAD_0 3)))
 (let (($x7363 (= $x247 (or (exc_halt_s 1) (not (bvsle (_ bv0 6) (bvadd (_ bv63 6) (sc_s 1))))))))
 (let (($x11400 (forall ((w (_ BitVec 256)) )(let ((?x740 (storage_s x_0 w_2 x_CALLDATALOAD_0 1 w)))
 (let ((?x959 (storage_s x_0 w_2 x_CALLDATALOAD_0 2 w)))
 (= ?x959 ?x740))))
 ))
 (let (($x11055 (forall ((n (_ BitVec 6)) )(let ((?x154 (sc_s 1)))
 (let ((?x2167 (bvadd (_ bv63 6) ?x154)))
 (let (($x1626 (bvsle ?x2167 n)))
 (let ((?x2807 (stack_s x_0 w_2 x_CALLDATALOAD_0 1 n)))
 (let ((?x5397 (stack_s x_0 w_2 x_CALLDATALOAD_0 2 n)))
 (or (= ?x5397 ?x2807) $x1626)))))))
 ))
 (let ((?x154 (sc_s 1)))
 (let ((?x218 (sc_s 2)))
 (let (($x675 (= ?x218 ?x154)))
 (let ((?x5502 (used_gas_s x_0 w_2 x_CALLDATALOAD_0 2)))
 (let ((?x2167 (bvadd (_ bv63 6) ?x154)))
 (let ((?x3876 (stack_s x_0 w_2 x_CALLDATALOAD_0 1 ?x2167)))
 (let (($x6963 (= (stack_s x_0 w_2 x_CALLDATALOAD_0 2 (bvadd (_ bv63 6) ?x218)) (f_CALLDATALOAD x_0 w_2 x_CALLDATALOAD_0 ?x3876))))
 (let (($x7592 (not (= ((_ extract 6 6) (bvadd (_ bv1 7) (concat (_ bv0 1) ?x72))) (_ bv0 1)))))
 (let (($x189 (exc_halt_s 1)))
 (let (($x3671 (= $x189 (or $x57 (not (bvsle (_ bv0 6) (bvadd (_ bv63 6) ?x72))) $x7592))))
 (let (($x1430 (forall ((w (_ BitVec 256)) )(let ((?x10782 (storage_s x_0 w_2 x_CALLDATALOAD_0 0 w)))
 (let ((?x740 (storage_s x_0 w_2 x_CALLDATALOAD_0 1 w)))
 (= ?x740 ?x10782))))
 ))
 (let (($x431 (forall ((n (_ BitVec 6)) )(let ((?x72 (sc_s 0)))
 (let ((?x4918 (bvadd (_ bv63 6) ?x72)))
 (let (($x7304 (bvsle ?x4918 n)))
 (let ((?x5521 (stack_s x_0 w_2 x_CALLDATALOAD_0 0 n)))
 (let ((?x2807 (stack_s x_0 w_2 x_CALLDATALOAD_0 1 n)))
 (or (= ?x2807 ?x5521) $x7304)))))))
 ))
 (let (($x11322 (= ?x154 (bvadd (_ bv1 6) ?x72))))
 (let ((?x4918 (bvadd (_ bv63 6) ?x72)))
 (let ((?x5944 (stack_s x_0 w_2 x_CALLDATALOAD_0 0 ?x4918)))
 (let (($x1092 (forall ((w0 (_ BitVec 256)) )(let ((?x2965 (ite (= (stack_s x_0 w_2 x_CALLDATALOAD_0 1 (bvadd (_ bv63 6) (sc_s 1))) w0) x_CALLDATALOAD_0 (_ bv0 256))))
 (let ((?x285 (f_CALLDATALOAD x_0 w_2 x_CALLDATALOAD_0 w0)))
 (= ?x285 ?x2965))))
 ))
 (let (($x9496 (forall ((w (_ BitVec 256)) )(let ((?x10782 (storage_s x_0 w_2 x_CALLDATALOAD_0 0 w)))
 (= ?x10782 (_ bv0 256))))
 ))
 (let (($x259 (= ?x5894 0)))
 (let (($x7449 (not $x57)))
 (let (($x5730 (= (stack_s x_0 w_2 x_CALLDATALOAD_0 0 (_ bv0 6)) x_0)))
 (let (($x7315 (= ?x72 (_ bv1 6))))
 (and $x7315 $x5730 $x7449 $x259 $x9496 $x1092 (= ?x3876 ?x5944) (= (stack_s x_0 w_2 x_CALLDATALOAD_0 1 ?x4918) ?x5944) (= (used_gas_s x_0 w_2 x_CALLDATALOAD_0 1) (+ 3 ?x5894)) $x11322 $x431 $x1430 $x3671 $x6963 (= ?x5502 (+ 3 (used_gas_s x_0 w_2 x_CALLDATALOAD_0 1))) $x675 $x11055 $x11400 $x7363 (= (stack_s x_0 w_2 x_CALLDATALOAD_0 3 ?x218) w_2) (= ?x6689 (+ 3 ?x5502)) $x799 $x4092 $x11802 $x7884 (= ?x5574 (stack_s x_0 w_2 x_CALLDATALOAD_0 3 (bvadd (_ bv62 6) ?x275))) (= ?x4095 (stack_s x_0 w_2 x_CALLDATALOAD_0 3 (bvadd (_ bv63 6) ?x275))) (= ?x3114 (+ 3 ?x6689)) $x5793 $x1015 $x1255 $x6198 (= (stack_s x_0 w_2 x_CALLDATALOAD_0 5 (bvadd (_ bv63 6) ?x4319)) ?x4095) (= (stack_s x_0 w_2 x_CALLDATALOAD_0 5 ?x103) ?x4095) (= (stack_s x_0 w_2 x_CALLDATALOAD_0 5 ?x8905) ?x5574) $x845 $x7882 $x5152 $x9164 $x4053 (= (stack_t x_0 w_2 x_CALLDATALOAD_0 1 ?x63) w_2) (= (used_gas_t x_0 w_2 x_CALLDATALOAD_0 1) (+ 3 ?x6373)) $x10097 $x7426 $x5878 $x10494 (= ?x7464 ?x3082) (= (stack_t x_0 w_2 x_CALLDATALOAD_0 2 ?x11582) ?x3082) $x1179 (= ?x9443 (+ 3 (used_gas_t x_0 w_2 x_CALLDATALOAD_0 1))) $x3131 $x2714 $x8069 $x7692 $x9285 (= ?x2344 (+ 3 ?x9443)) $x5666 $x5128 $x4655 $x10396 (= (stack_t x_0 w_2 x_CALLDATALOAD_0 4 ?x11304) w_2) $x6117 $x11867 $x5383 $x8367 (= $x7854 (or $x3614 $x11926)) $x73 $x11445 $x58 $x6830 $x7684 (not (and $x1733 $x6335 $x6479 $x2421))))))))))))))))))))))))))))))))))))))))))))))))))))))))))))))))))))))))))))))))))))))))))))))))))))))))))
 )
(check-sat)
(get-proof)
